(declare-const x0 Real)
(declare-const x1 Real)
(declare-const x2 Real)
(declare-const x3 Real)
(declare-const x4 Real)
(declare-const x5 Real)
(declare-const x6 Real)
(declare-const x7 Real)
(declare-const x8 Real)
(declare-const x9 Real)
(declare-const x10 Real)
(declare-const x11 Real)
(declare-const x12 Real)
(declare-const x13 Real)
(declare-const x14 Real)

(assert (<= (- 385.0) (+ (* (- 100.0) (^ x0 2.0)) (* (- 100.0) (^ x1 2.0)) (* (- 10.0) (^ x2 2.0)) (* (- 5.0) (^ x3 2.0)) (* (- 10.0) (^ x4 2.0)) (* (- 25.0) (^ x7 2.0)) (* (- 10.0) (^ x9 2.0)) (* (- 55.0) (^ x10 2.0)) (* (- 5.0) (^ x11 2.0)) (* (- 45.0) (^ x12 2.0)) (* (- 20.0) (^ x13 2.0)))))
(assert (<= (- 470.0) (+ (* (- 90.0) (^ x0 2.0)) (* (- 100.0) (^ x1 2.0)) (* (- 10.0) (^ x2 2.0)) (* (- 35.0) (^ x3 2.0)) (* (- 20.0) (^ x4 2.0)) (* (- 5.0) (^ x5 2.0)) (* (- 35.0) (^ x7 2.0)) (* (- 55.0) (^ x8 2.0)) (* (- 25.0) (^ x9 2.0)) (* (- 20.0) (^ x10 2.0)) (* (- 40.0) (^ x12 2.0)) (* (- 25.0) (^ x13 2.0)) (* (- 10.0) (^ x14 2.0)))))
(assert (<= (- 560.0) (+ (* (- 70.0) (^ x0 2.0)) (* (- 50.0) (^ x1 2.0)) (* (- 55.0) (^ x3 2.0)) (* (- 25.0) (^ x4 2.0)) (* (- 100.0) (^ x5 2.0)) (* (- 40.0) (^ x6 2.0)) (* (- 50.0) (^ x7 2.0)) (* (- 30.0) (^ x9 2.0)) (* (- 60.0) (^ x10 2.0)) (* (- 10.0) (^ x11 2.0)) (* (- 30.0) (^ x12 2.0)) (* (- 40.0) (^ x14 2.0)))))
(assert (<= (- 565.0) (+ (* (- 50.0) (^ x0 2.0)) (* (- 65.0) (^ x3 2.0)) (* (- 35.0) (^ x4 2.0)) (* (- 100.0) (^ x5 2.0)) (* (- 36.0) (^ x6 2.0)) (* (- 60.0) (^ x7 2.0)) (* (- 15.0) (^ x9 2.0)) (* (- 75.0) (^ x11 2.0)) (* (- 35.0) (^ x12 2.0)) (* (- 30.0) (^ x13 2.0)) (* (- 65.0) (^ x14 2.0)))))
(assert (<= (- 645.0) (+ (* (- 50.0) (^ x0 2.0)) (* (- 10.0) (^ x1 2.0)) (* (- 70.0) (^ x2 2.0)) (* (- 60.0) (^ x3 2.0)) (* (- 45.0) (^ x4 2.0)) (* (- 45.0) (^ x5 2.0)) (* (- 35.0) (^ x7 2.0)) (* (- 65.0) (^ x8 2.0)) (* (- 5.0) (^ x9 2.0)) (* (- 75.0) (^ x10 2.0)) (* (- 100.0) (^ x11 2.0)) (* (- 75.0) (^ x12 2.0)) (* (- 10.0) (^ x13 2.0)))))
(assert (<= (- 430.0) (+ (* (- 40.0) (^ x0 2.0)) (* (- 50.0) (^ x2 2.0)) (* (- 95.0) (^ x3 2.0)) (* (- 50.0) (^ x4 2.0)) (* (- 35.0) (^ x5 2.0)) (* (- 10.0) (^ x6 2.0)) (* (- 60.0) (^ x7 2.0)) (* (- 45.0) (^ x9 2.0)) (* (- 15.0) (^ x10 2.0)) (* (- 20.0) (^ x11 2.0)) (* (- 5.0) (^ x13 2.0)) (* (- 5.0) (^ x14 2.0)))))
(assert (<= (- 485.0) (+ (* (- 30.0) (^ x0 2.0)) (* (- 60.0) (^ x1 2.0)) (* (- 30.0) (^ x2 2.0)) (* (- 90.0) (^ x3 2.0)) (* (- 30.0) (^ x5 2.0)) (* (- 5.0) (^ x6 2.0)) (* (- 25.0) (^ x7 2.0)) (* (- 70.0) (^ x9 2.0)) (* (- 20.0) (^ x10 2.0)) (* (- 25.0) (^ x11 2.0)) (* (- 70.0) (^ x12 2.0)) (* (- 15.0) (^ x13 2.0)) (* (- 15.0) (^ x14 2.0)))))
(assert (<= (- 455.0) (+ (* (- 20.0) (^ x0 2.0)) (* (- 30.0) (^ x1 2.0)) (* (- 40.0) (^ x2 2.0)) (* (- 25.0) (^ x3 2.0)) (* (- 40.0) (^ x4 2.0)) (* (- 25.0) (^ x5 2.0)) (* (- 15.0) (^ x6 2.0)) (* (- 10.0) (^ x7 2.0)) (* (- 80.0) (^ x8 2.0)) (* (- 20.0) (^ x9 2.0)) (* (- 30.0) (^ x10 2.0)) (* (- 30.0) (^ x11 2.0)) (* (- 5.0) (^ x12 2.0)) (* (- 65.0) (^ x13 2.0)) (* (- 20.0) (^ x14 2.0)))))
(assert (<= (- 390.0) (+ (* (- 10.0) (^ x0 2.0)) (* (- 70.0) (^ x1 2.0)) (* (- 10.0) (^ x2 2.0)) (* (- 35.0) (^ x3 2.0)) (* (- 25.0) (^ x4 2.0)) (* (- 65.0) (^ x5 2.0)) (* (- 30.0) (^ x7 2.0)) (* (- 25.0) (^ x10 2.0)) (* (- 15.0) (^ x12 2.0)) (* (- 50.0) (^ x13 2.0)) (* (- 55.0) (^ x14 2.0)))))
(assert (<= (- 460.0) (+ (* (- 5.0) (^ x0 2.0)) (* (- 10.0) (^ x1 2.0)) (* (- 100.0) (^ x2 2.0)) (* (- 5.0) (^ x3 2.0)) (* (- 20.0) (^ x4 2.0)) (* (- 5.0) (^ x5 2.0)) (* (- 10.0) (^ x6 2.0)) (* (- 35.0) (^ x7 2.0)) (* (- 95.0) (^ x8 2.0)) (* (- 70.0) (^ x9 2.0)) (* (- 20.0) (^ x10 2.0)) (* (- 10.0) (^ x11 2.0)) (* (- 35.0) (^ x12 2.0)) (* (- 10.0) (^ x13 2.0)) (* (- 30.0) (^ x14 2.0)))))
(assert (<= 193.121000 (+ (* 0.500000 (^ (+ (- 2.0) x0) 2.0)) (^ (+ (- 2.0) x1) 2.0) (* 1.500000 (^ (+ (- 2.0) x2) 2.0)) (* 2.0 (^ (+ (- 2.0) x3) 2.0)) (* 2.500000 (^ (+ (- 2.0) x4) 2.0)) (* 3.0 (^ (+ (- 2.0) x5) 2.0)) (* 3.500000 (^ (+ (- 2.0) x6) 2.0)) (* 4.0 (^ (+ (- 2.0) x7) 2.0)) (* 4.500000 (^ (+ (- 2.0) x8) 2.0)) (* 5.0 (^ (+ (- 2.0) x9) 2.0)) (* 5.500000 (^ (+ (- 2.0) x10) 2.0)) (* 6.0 (^ (+ (- 2.0) x11) 2.0)) (* 6.500000 (^ (+ (- 2.0) x12) 2.0)) (* 7.0 (^ (+ (- 2.0) x13) 2.0)) (* 7.500000 (^ (+ (- 2.0) x14) 2.0)))))
(assert (<= (- 70.0) (+ (* (- 1.0) x0) (* (- 2.0) x1) (* (- 3.0) x2) (* (- 4.0) x3) (* (- 5.0) x4) (* (- 6.0) x5) (* (- 7.0) x6) (* (- 8.0) x7) (* (- 9.0) x8) (* (- 10.0) x9) (* (- 15.0) x10) (* (- 16.0) x11) (* (- 17.0) x12) (* (- 18.0) x13) (* (- 19.0) x14))))
(assert (<= (- 361.0) (+ (* (- 45.0) x0) (* (- 25.0) x1) (* (- 35.0) x2) (* (- 85.0) x3) (* (- 40.0) x4) (* (- 73.0) x5) (* (- 17.0) x6) (* (- 52.0) x7) (* (- 86.0) x8) (* (- 14.0) x9) (* (- 30.0) x10) (* (- 50.0) x11) (* (- 40.0) x12) (* (- 70.0) x13) (* (- 60.0) x14))))
(assert (<= (- 265.0) (+ (* (- 53.0) x0) (* (- 74.0) x1) (* (- 26.0) x2) (* (- 17.0) x3) (* (- 25.0) x4) (* (- 25.0) x5) (* (- 26.0) x6) (* (- 24.0) x7) (* (- 85.0) x8) (* (- 35.0) x9) (* (- 14.0) x10) (* (- 23.0) x11) (* (- 37.0) x12) (* (- 56.0) x13) (* (- 10.0) x14))))
(assert (<= (- 395.0) (+ (* (- 12.0) x0) (* (- 43.0) x1) (* (- 51.0) x2) (* (- 39.0) x3) (* (- 58.0) x4) (* (- 42.0) x5) (* (- 60.0) x6) (* (- 20.0) x7) (* (- 40.0) x8) (* (- 80.0) x9) (* (- 75.0) x10) (* (- 85.0) x11) (* (- 95.0) x12) (* (- 23.0) x13) (* (- 67.0) x14))))

(minimize
	(+ (* (- 486.0) x0) (* (- 640.0) x1) (* (- 758.0) x2) (* (- 776.0) x3) (* (- 477.0) x4) (* (- 707.0) x5) (* (- 175.0) x6) (* (- 619.0) x7) (* (- 627.0) x8) (* (- 614.0) x9) (* (- 475.0) x10) (* (- 377.0) x11) (* (- 524.0) x12) (* (- 468.0) x13) (* (- 529.0) x14))
)
(check-sat)
(get-objectives)
(exit)

